decision_x1=[0,2];
decision_x2=[0,2];
decision_x3=[0,2];
decision_x4=[0,2];
decision_x5=[0,2];
decision_x6=[0,2];
decision_x7=[0,2];
decision_x8=[0,2];
decision_x9=[0,2];
decision_x10=[0,2];
decision_x11=[0,2];
decision_x12=[0,2];
random_y1=[0,2];
random_y2=[0,2];
random_y3=[0,2];
random_y4=[0,2];
random_y5=[0,2];
random_y6=[0,2];
random_y7=[0,2];
random_y8=[0,2];
random_y9=[0,2];
random_y10=[0,2];
random_y11=[0,2];
random_y12=[0,2];
constraint_x2_x1=[
0,0,3.5|
0,1,8.2|
0,2,0.42|
1,0,2.6|
1,1,7|
1,2,9.6|
2,0,8|
2,1,0.14|
2,2,6.5|
];
constraint_x3_x1=[
0,0,2.2|
0,1,8.6|
0,2,6.2|
1,0,5.4|
1,1,0.24|
1,2,1.9|
2,0,2.6|
2,1,5.8|
2,2,0.92|
];
constraint_x3_x2=[
0,0,3.5|
0,1,5|
0,2,0.91|
1,0,6.3|
1,1,9.3|
1,2,5.6|
2,0,9.5|
2,1,4.7|
2,2,2.9|
];
constraint_x5_x1=[
0,0,7.2|
0,1,5.6|
0,2,7.5|
1,0,10|
1,1,5.2|
1,2,6.6|
2,0,6.6|
2,1,6.3|
2,2,4.5|
];
constraint_x5_x2=[
0,0,5.6|
0,1,7.3|
0,2,2.2|
1,0,5.3|
1,1,0.24|
1,2,6.6|
2,0,1.5|
2,1,0.96|
2,2,2.6|
];
constraint_x5_x3=[
0,0,7.6|
0,1,5.5|
0,2,2.4|
1,0,9.4|
1,1,1.7|
1,2,6.3|
2,0,7.5|
2,1,6.1|
2,2,9.6|
];
constraint_x6_x5=[
0,0,0.42|
0,1,0.89|
0,2,1.3|
1,0,1|
1,1,7|
1,2,5.5|
2,0,9.6|
2,1,8.8|
2,2,1.1|
];
constraint_x7_x1=[
0,0,5.9|
0,1,9.8|
0,2,6.6|
1,0,5.2|
1,1,5.7|
1,2,5|
2,0,1.7|
2,1,1.9|
2,2,1.3|
];
constraint_x7_x3=[
0,0,3.5|
0,1,9.7|
0,2,3.5|
1,0,9.2|
1,1,2.6|
1,2,8.1|
2,0,1.1|
2,1,0.16|
2,2,8.6|
];
constraint_x7_x5=[
0,0,4.8|
0,1,2.6|
0,2,9.7|
1,0,0.61|
1,1,2.3|
1,2,0.56|
2,0,7.5|
2,1,7.5|
2,2,1.3|
];
constraint_x7_x6=[
0,0,6.2|
0,1,4.1|
0,2,3|
1,0,5|
1,1,8.7|
1,2,4.3|
2,0,8.3|
2,1,2.6|
2,2,6|
];
constraint_x8_x2=[
0,0,6.7|
0,1,4.6|
0,2,0.16|
1,0,1.9|
1,1,9.8|
1,2,6.5|
2,0,9.8|
2,1,2.1|
2,2,8.1|
];
constraint_x8_x3=[
0,0,9.9|
0,1,5.1|
0,2,0.89|
1,0,5.4|
1,1,7.7|
1,2,4.1|
2,0,3.4|
2,1,9.3|
2,2,5.4|
];
constraint_x8_x4=[
0,0,0.94|
0,1,7.6|
0,2,4.2|
1,0,5.3|
1,1,2.4|
1,2,0.85|
2,0,4.7|
2,1,1.3|
2,2,8.8|
];
constraint_x8_x5=[
0,0,2.6|
0,1,6.1|
0,2,4.5|
1,0,0.65|
1,1,9.7|
1,2,1.4|
2,0,8.9|
2,1,9.7|
2,2,0.88|
];
constraint_x8_x6=[
0,0,5.1|
0,1,8.7|
0,2,1.9|
1,0,9.2|
1,1,5.1|
1,2,2.7|
2,0,9.1|
2,1,5.7|
2,2,4.8|
];
constraint_x9_x2=[
0,0,1.4|
0,1,2.5|
0,2,3.7|
1,0,4.1|
1,1,1.3|
1,2,3.9|
2,0,2.2|
2,1,9.9|
2,2,8.8|
];
constraint_x9_x4=[
0,0,0.27|
0,1,9.3|
0,2,0.74|
1,0,6.1|
1,1,8.7|
1,2,3.3|
2,0,8.7|
2,1,3.6|
2,2,7.3|
];
constraint_x9_x5=[
0,0,3.6|
0,1,1.6|
0,2,5.8|
1,0,3.9|
1,1,1.2|
1,2,0.13|
2,0,0.35|
2,1,0.39|
2,2,5.2|
];
constraint_x9_x6=[
0,0,7.2|
0,1,8|
0,2,4.6|
1,0,5.2|
1,1,8.2|
1,2,4.3|
2,0,3.9|
2,1,7.5|
2,2,9.4|
];
constraint_x10_x1=[
0,0,6.2|
0,1,7.8|
0,2,6.9|
1,0,6.4|
1,1,4.5|
1,2,1.6|
2,0,9.7|
2,1,9.7|
2,2,7.9|
];
constraint_x10_x3=[
0,0,0.69|
0,1,8.2|
0,2,4.8|
1,0,4.4|
1,1,2.6|
1,2,4.2|
2,0,3.6|
2,1,2.2|
2,2,4.1|
];
constraint_x10_x4=[
0,0,5.8|
0,1,7.1|
0,2,4.9|
1,0,2.2|
1,1,1|
1,2,6.1|
2,0,4.6|
2,1,8.3|
2,2,8.7|
];
constraint_x10_x5=[
0,0,6.8|
0,1,6.7|
0,2,9.9|
1,0,7.1|
1,1,8.4|
1,2,10|
2,0,2.2|
2,1,7.2|
2,2,4.4|
];
constraint_x10_x6=[
0,0,5.2|
0,1,9.7|
0,2,9.1|
1,0,1.3|
1,1,3.2|
1,2,4|
2,0,0.79|
2,1,6.6|
2,2,0.14|
];
constraint_x10_x8=[
0,0,1.5|
0,1,9.4|
0,2,4.4|
1,0,9.2|
1,1,2.8|
1,2,8.3|
2,0,3.3|
2,1,2.2|
2,2,0.97|
];
constraint_x10_x9=[
0,0,3.8|
0,1,5.5|
0,2,9.4|
1,0,9.4|
1,1,6.7|
1,2,6.1|
2,0,0.83|
2,1,6|
2,2,6.2|
];
constraint_x11_x3=[
0,0,6.4|
0,1,5.5|
0,2,5.6|
1,0,3.5|
1,1,8.1|
1,2,5.1|
2,0,3.8|
2,1,1.8|
2,2,1.1|
];
constraint_x11_x4=[
0,0,1.4|
0,1,5.2|
0,2,1.9|
1,0,6|
1,1,8.8|
1,2,5.5|
2,0,4.4|
2,1,3.1|
2,2,4.6|
];
constraint_x11_x6=[
0,0,1.8|
0,1,7.2|
0,2,0.31|
1,0,4.2|
1,1,9.8|
1,2,4.3|
2,0,9.3|
2,1,9|
2,2,7|
];
constraint_x11_x7=[
0,0,2.7|
0,1,7.1|
0,2,9|
1,0,9.8|
1,1,4.3|
1,2,2.7|
2,0,5.1|
2,1,5.4|
2,2,9.7|
];
constraint_x12_x2=[
0,0,1.3|
0,1,7.2|
0,2,2.9|
1,0,6.9|
1,1,4.1|
1,2,9.2|
2,0,3.6|
2,1,7.7|
2,2,8.3|
];
constraint_x12_x10=[
0,0,6.5|
0,1,5.5|
0,2,1.2|
1,0,3.1|
1,1,7.6|
1,2,3.7|
2,0,3.9|
2,1,3|
2,2,9.5|
];
constraint_x1_y1=[
0,0,9.5|
0,1,8.7|
0,2,3.4|
1,0,4.6|
1,1,2.2|
1,2,9|
2,0,0.12|
2,1,8.1|
2,2,3.7|
];
constraint_x2_y2=[
0,0,1.4|
0,1,2|
0,2,4.1|
1,0,5.9|
1,1,5.2|
1,2,3.9|
2,0,0.44|
2,1,1.9|
2,2,6.2|
];
constraint_x3_y3=[
0,0,2.4|
0,1,5.8|
0,2,0.1|
1,0,0.53|
1,1,0.86|
1,2,9.5|
2,0,6.7|
2,1,6.6|
2,2,1.2|
];
constraint_x4_y4=[
0,0,9.9|
0,1,1.1|
0,2,8.6|
1,0,9.1|
1,1,3.6|
1,2,4.7|
2,0,5.3|
2,1,5.5|
2,2,8.1|
];
constraint_x5_y5=[
0,0,4.8|
0,1,5.2|
0,2,1.6|
1,0,2.8|
1,1,7.9|
1,2,0.71|
2,0,0.095|
2,1,1.4|
2,2,2|
];
constraint_x6_y6=[
0,0,9.7|
0,1,9.9|
0,2,2.6|
1,0,7.6|
1,1,3.3|
1,2,1.1|
2,0,1.2|
2,1,3.4|
2,2,5.4|
];
constraint_x7_y7=[
0,0,4.7|
0,1,1.3|
0,2,8.8|
1,0,0.97|
1,1,4.6|
1,2,7|
2,0,0.33|
2,1,4.4|
2,2,5.8|
];
constraint_x8_y8=[
0,0,9.8|
0,1,5.6|
0,2,3.6|
1,0,6.1|
1,1,1|
1,2,0.12|
2,0,0.39|
2,1,1.7|
2,2,9.4|
];
constraint_x9_y9=[
0,0,5.3|
0,1,0.17|
0,2,1.2|
1,0,7.7|
1,1,1.5|
1,2,8|
2,0,2.8|
2,1,0.65|
2,2,3.2|
];
constraint_x10_y10=[
0,0,9.3|
0,1,7.7|
0,2,4.8|
1,0,4.8|
1,1,6.6|
1,2,9.9|
2,0,2.6|
2,1,0.36|
2,2,3.6|
];
constraint_x11_y11=[
0,0,0.6|
0,1,0.56|
0,2,9.6|
1,0,6|
1,1,6.3|
1,2,6.9|
2,0,2.8|
2,1,7.3|
2,2,4.2|
];
constraint_x12_y12=[
0,0,2.5|
0,1,3.7|
0,2,6.9|
1,0,3.4|
1,1,4.1|
1,2,3.4|
2,0,2.8|
2,1,0.54|
2,2,5.8|
];
initial_distribution_y1=[0.34,0.3,0.36];
initial_distribution_y2=[0.41,0.31,0.28];
initial_distribution_y3=[0.42,0.11,0.48];
initial_distribution_y4=[0.23,0.33,0.43];
initial_distribution_y5=[0.56,0.41,0.035];
initial_distribution_y6=[0.47,0.35,0.19];
initial_distribution_y7=[0.43,0.48,0.091];
initial_distribution_y8=[0.63,0.083,0.28];
initial_distribution_y9=[0.41,0.44,0.15];
initial_distribution_y10=[0.65,0.29,0.061];
initial_distribution_y11=[0.31,0.15,0.54];
initial_distribution_y12=[0.27,0.54,0.19];
transition_y1=[
0.3,0.45,0.25|
0.099,0.79,0.12|
0.74,0.022,0.24|
];
transition_y2=[
0.79,0.15,0.06|
0.23,0.47,0.29|
0.36,0.39,0.25|
];
transition_y3=[
0.33,0.53,0.14|
0.46,0.11,0.42|
0.013,0.49,0.49|
];
transition_y4=[
0.48,0.3,0.22|
0.36,0.31,0.33|
0.22,0.28,0.5|
];
transition_y5=[
0.32,0.35,0.33|
0.28,0.36,0.36|
0.26,0.28,0.46|
];
transition_y6=[
0.46,0.3,0.24|
0.33,0.59,0.078|
0.47,0.45,0.076|
];
transition_y7=[
0.087,0.37,0.55|
0.54,0.27,0.19|
0.26,0.31,0.42|
];
transition_y8=[
0.21,0.4,0.39|
0.47,0.49,0.038|
0.02,0.11,0.87|
];
transition_y9=[
0.1,0.15,0.75|
0.49,0.31,0.2|
0.35,0.37,0.27|
];
transition_y10=[
0.25,0.68,0.067|
0.3,0.64,0.066|
0.46,0.024,0.51|
];
transition_y11=[
0.19,0.37,0.44|
0.14,0.25,0.61|
0.39,0.099,0.51|
];
transition_y12=[
0.12,0.53,0.35|
0.39,0.38,0.24|
0.2,0.53,0.27|
];
